186 3973
 2 3 4 5 6 7 8 9 10 11 12 13 14 15 16 33 34 35 36 37 38 39 40 41 42 43 44 45 46 47 48 49 50 51 52 53 54 55 56 57 58 59 60 61 62 63 64 65 66 67 68 69 70 71 72 73 74 75 76 77 78 79 80 81 82 83 84 85 86 87 88 89 90 91 92 93 94 95 96 97 98 99 100 101 102 103 104 105 106 107 109 110 111 112 113 114 115 116 117 118 119 120 121 122 123 124 125 126 127 129 130 131 132 133 134 135 136 137 138 139 141 143 144 145 146 147 148 149 151 153 154 155 156 157 159 161 162 163 164 165 166 167 168 169 170 171 172 173 174 175 176 177 178 179 181 182 184 185 186
 3 4 5 6 7 8 9 10 11 12 13 14 15 16 33 34 35 36 37 38 39 40 41 42 43 44 45 46 47 48 49 50 51 52 53 54 55 56 57 58 59 60 61 62 63 64 65 66 67 68 69 70 71 72 73 74 75 76 77 78 79 80 81 82 83 84 85 86 87 88 89 90 91 92 93 94 95 96 97 98 99 100 101 102 103 104 105 106 107 109 110 111 112 113 114 115 116 117 118 119 120 121 122 123 124 125 126 127 129 130 131 132 133 134 135 136 137 138 139 141 143 144 145 146 147 148 149 151 153 154 155 156 157 159 161 162 163 164 165 166 167 168 169 170 171 172 173 174 175 176 177 178 179 181 182 184 185 186
 4 5 6 7 8 9 10 11 12 13 14 15 16 33 38 39 40 41 42 43 44 45 46 47 48 49 50 51 52 53 54 55 56 57 58 59 60 61 63 64 65 66 67 70 100 101 102 103 104 105 106 107 111 112 117 119 122 130 132 134 135 136 138 139 143 144 145 146 147 148 149 153 154 155 156 157 163 164 165 181 182
 5 6 7 8 9 10 11 12 13 14 15 16 33 46 47 48 49 50 51 52 53 54 61 63 64 65 66 67 70 100 101 102 103 104 105 106 107 111 112 117 119 122 130 132 134 135 136 138 139 143 144 145 146 147 148 149 153 154 155 156 157 163 164 165 181 182
 6 7 8 9 10 11 12 13 14 15 16 33 38 46 47 48 49 50 51 52 53 54 61 63 64 65 66 67 70 100 101 102 103 104 105 106 107 111 112 117 119 122 130 132 134 135 136 138 139 143 144 145 146 147 148 149 153 154 155 156 157 163 164 165 175 181 182
 7 8 9 10 11 12 13 14 15 16 33 38 39 46 47 48 49 50 51 52 53 54 61 63 64 65 66 67 70 100 101 102 103 104 105 106 107 111 112 117 119 122 130 132 134 135 136 138 139 143 144 145 146 147 148 149 153 154 155 156 157 163 164 165 174 175 181 182
 8 9 10 11 12 13 14 15 16 33 38 39 40 46 47 48 49 50 51 52 53 54 61 63 64 65 66 67 70 100 101 102 103 104 105 106 107 111 112 117 119 122 130 132 134 135 136 138 139 143 144 145 146 147 148 149 153 154 155 156 157 163 164 165 173 174 175 181 182
 9 10 11 12 13 14 15 16 33 38 39 40 41 46 47 48 49 50 51 52 53 54 61 63 64 65 66 67 70 100 101 102 103 104 105 106 107 111 112 117 119 122 130 132 134 135 136 138 139 143 144 145 146 147 148 149 153 154 155 156 157 163 164 165 172 173 174 175 181 182
 10 11 12 13 14 15 16 33 38 39 40 41 42 46 47 48 49 50 51 52 53 54 61 63 64 65 66 67 70 100 101 102 103 104 105 106 107 111 112 117 119 122 130 132 134 135 136 138 139 143 144 145 146 147 148 149 153 154 155 156 157 163 164 165 171 172 173 174 175 181 182
 11 12 13 14 15 16 33 38 39 40 41 42 43 46 47 48 49 50 51 52 53 54 61 63 64 65 66 67 70 100 101 102 103 104 105 106 107 111 112 117 119 122 130 132 134 135 136 138 139 143 144 145 146 147 148 149 153 154 155 156 157 163 164 165 170 171 172 173 174 175 181 182
 12 13 14 15 16 33 38 39 40 41 42 43 44 45 46 47 48 49 50 51 52 53 54 61 63 64 65 66 67 70 100 101 102 103 104 105 106 107 111 112 117 119 122 130 132 134 135 136 138 139 143 144 145 146 147 148 149 153 154 155 156 157 163 164 165 181 182
 13 14 15 16 33 38 39 40 41 42 43 44 45 46 47 48 49 50 51 52 53 54 55 56 61 63 64 65 66 67 70 100 101 102 103 104 105 106 107 111 112 117 119 122 130 132 134 135 136 138 139 143 144 145 146 147 148 149 153 154 155 156 157 163 164 165 181 182
 14 15 16 33 38 39 40 41 42 43 44 45 46 47 48 49 50 51 52 53 54 55 56 57 58 61 63 64 65 66 67 70 100 101 102 103 104 105 106 107 111 112 117 119 122 130 132 134 135 136 138 139 143 144 145 146 147 148 149 153 154 155 156 157 163 164 165 181 182
 15 16 33 38 39 40 41 42 43 44 45 46 47 48 49 50 51 52 53 54 55 56 57 58 59 61 63 64 65 66 67 70 100 101 102 103 104 105 106 107 111 112 117 119 122 130 132 134 135 136 138 139 143 144 145 146 147 148 149 153 154 155 156 157 163 164 165 181 182
 16 33 46 47 48 49 50 51 52 53 54 61 63 64 65 66 67 70 100 101 102 103 104 105 106 107 111 112 117 119 122 130 132 134 135 136 138 139 143 144 145 146 147 148 149 153 154 155 156 157 163 164 165 181 182
 33 38 39 40 41 42 43 44 46 47 48 49 50 51 52 53 54 61 63 64 65 66 67 70 100 101 102 103 104 105 106 107 111 112 117 119 122 130 132 134 135 136 138 139 143 144 145 146 147 148 149 153 154 155 156 157 163 164 165 169 170 171 172 173 174 175 181 182
 18 19 20 21 22 23 24 25 26 27 28 29 30 31 32 33 34 35 36 37 38 39 40 41 42 43 44 45 46 47 48 49 50 51 52 53 54 55 56 57 58 59 60 61 62 63 64 65 66 67 68 69 70 71 72 73 74 75 76 77 78 79 80 81 82 83 84 85 86 87 88 89 90 91 92 93 94 95 96 97 98 99 100 101 102 103 104 105 106 107 109 110 111 112 113 114 115 116 117 118 119 120 121 122 123 124 125 126 127 129 130 131 132 133 134 135 136 137 138 139 141 143 144 145 146 147 148 149 151 153 154 155 156 157 159 161 162 163 164 165 166 167 168 169 170 171 172 173 174 175 176 177 178 179 181 182 184 185 186
 19 20 21 22 23 24 25 26 27 28 29 30 31 32 34 35 36 37 38 39 40 41 42 43 44 45 55 56 57 58 59 60 62 68 69 71 72 73 74 75 76 77 78 79 80 81 82 83 84 85 86 87 88 89 90 91 92 93 94 95 96 97 98 99 109 110 113 114 115 116 118 120 121 123 124 125 126 127 129 131 133 137 141 151 159 161 162 166 167 168 169 170 171 172 173 174 175 176 177 178 179 184 185 186
 20 21 22 23 24 25 26 27 28 29 30 31 32 34 35 36 37 38 39 40 41 42 43 44 45 46 55 56 57 58 59 60 62 68 69 71 72 73 74 75 76 77 78 79 80 81 82 83 84 85 86 87 88 89 90 91 92 93 94 95 96 97 98 99 109 110 113 114 115 116 118 120 121 123 124 125 126 127 129 131 133 137 141 151 159 161 162 163 166 167 168 169 170 171 172 173 174 175 176 177 178 179 184 185 186
 21 22 23 24 25 26 27 28 29 30 31 32 34 35 36 37 38 39 40 41 42 43 44 45 46 47 55 56 57 58 59 60 62 68 69 71 72 73 74 75 76 77 78 79 80 81 82 83 84 85 86 87 88 89 90 91 92 93 94 95 96 97 98 99 109 110 113 114 115 116 118 120 121 123 124 125 126 127 129 131 133 137 141 151 159 161 162 163 164 166 167 168 169 170 171 172 173 174 175 176 177 178 179 184 185 186
 22 23 24 25 26 27 28 29 30 31 32 34 35 36 37 38 39 40 41 42 43 44 45 46 47 48 55 56 57 58 59 60 62 68 69 71 72 73 74 75 76 77 78 79 80 81 82 83 84 85 86 87 88 89 90 91 92 93 94 95 96 97 98 99 109 110 113 114 115 116 118 120 121 123 124 125 126 127 129 131 133 137 141 151 159 161 162 163 164 165 166 167 168 169 170 171 172 173 174 175 176 177 178 179 184 185 186
 23 24 25 26 27 28 29 30 31 32 34 35 36 37 38 39 40 41 42 43 44 45 46 47 48 49 55 56 57 58 59 60 62 68 69 71 72 73 74 75 76 77 78 79 80 81 82 83 84 85 86 87 88 89 90 91 92 93 94 95 96 97 98 99 109 110 113 114 115 116 118 120 121 123 124 125 126 127 129 131 133 137 141 151 159 161 162 163 164 165 166 167 168 169 170 171 172 173 174 175 176 177 178 179 184 185 186
 24 25 26 27 28 29 30 31 32 34 35 36 37 38 39 40 41 42 43 44 45 46 47 48 49 50 55 56 57 58 59 60 62 68 69 71 72 73 74 75 76 77 78 79 80 81 82 83 84 85 86 87 88 89 90 91 92 93 94 95 96 97 98 99 109 110 113 114 115 116 118 120 121 123 124 125 126 127 129 131 133 137 141 151 159 161 162 163 164 165 166 167 168 169 170 171 172 173 174 175 176 177 178 179 184 185 186
 25 26 27 28 29 30 31 32 34 35 36 37 38 39 40 41 42 43 44 45 46 47 48 49 50 51 55 56 57 58 59 60 62 68 69 71 72 73 74 75 76 77 78 79 80 81 82 83 84 85 86 87 88 89 90 91 92 93 94 95 96 97 98 99 109 110 113 114 115 116 118 120 121 123 124 125 126 127 129 131 133 137 141 151 159 161 162 163 164 165 166 167 168 169 170 171 172 173 174 175 176 177 178 179 184 185 186
 26 27 28 29 30 31 32 34 35 36 37 38 39 40 41 42 43 44 45 46 47 48 49 50 51 52 55 56 57 58 59 60 62 68 69 71 72 73 74 75 76 77 78 79 80 81 82 83 84 85 86 87 88 89 90 91 92 93 94 95 96 97 98 99 109 110 113 114 115 116 118 120 121 123 124 125 126 127 129 131 133 137 141 151 159 161 162 163 164 165 166 167 168 169 170 171 172 173 174 175 176 177 178 179 184 185 186
 27 28 29 30 31 32 34 35 36 37 38 39 40 41 42 43 44 45 46 47 48 49 50 51 52 53 55 56 57 58 59 60 62 68 69 71 72 73 74 75 76 77 78 79 80 81 82 83 84 85 86 87 88 89 90 91 92 93 94 95 96 97 98 99 109 110 113 114 115 116 118 120 121 123 124 125 126 127 129 131 133 137 141 151 159 161 162 163 164 165 166 167 168 169 170 171 172 173 174 175 176 177 178 179 184 185 186
 28 29 30 31 32 34 35 36 37 38 39 40 41 42 43 44 45 55 56 57 58 59 60 62 68 69 71 72 73 74 75 76 77 78 79 80 81 82 83 84 85 86 87 88 89 90 91 92 93 94 95 96 97 98 99 109 110 113 114 115 116 118 120 121 123 124 125 126 127 129 131 133 137 141 151 159 161 162 166 167 168 169 170 171 172 173 174 175 176 177 178 179 184 185 186
 29 30 31 32 34 35 36 37 38 39 40 41 42 43 44 45 55 56 57 58 59 60 62 68 69 71 72 73 74 75 76 77 78 79 80 81 82 83 84 85 86 87 88 89 90 91 92 93 94 95 96 97 98 99 109 110 113 114 115 116 118 120 121 123 124 125 126 127 129 131 133 137 141 151 159 161 162 166 167 168 169 170 171 172 173 174 175 176 177 178 179 184 185 186
 30 31 32 34 35 36 37 38 39 40 41 42 43 44 45 55 56 57 58 59 60 62 68 69 71 72 73 74 75 76 77 78 79 80 81 82 83 84 85 86 87 88 89 90 91 92 93 94 95 96 97 98 99 109 110 113 114 115 116 118 120 121 123 124 125 126 127 129 131 133 137 141 151 159 161 162 166 167 168 169 170 171 172 173 174 175 176 177 178 179 184 185 186
 31 32 34 35 36 37 38 39 40 41 42 43 44 45 55 56 57 58 59 60 62 68 69 71 72 73 74 75 76 77 78 79 80 81 82 83 84 85 86 87 88 89 90 91 92 93 94 95 96 97 98 99 109 110 113 114 115 116 118 120 121 123 124 125 126 127 129 131 133 137 141 151 159 161 162 166 167 168 169 170 171 172 173 174 175 176 177 178 179 184 185 186
 32 34 35 36 37 38 39 40 41 42 43 44 45 55 56 57 58 59 60 62 68 69 71 72 73 74 75 76 77 78 79 80 81 82 83 84 85 86 87 88 89 90 91 92 93 94 95 96 97 98 99 109 110 113 114 115 116 118 120 121 123 124 125 126 127 129 131 133 137 141 151 159 161 162 166 167 168 169 170 171 172 173 174 175 176 177 178 179 184 185 186
 34 35 36 37 38 39 40 41 42 43 44 45 55 56 57 58 59 60 62 68 69 71 72 73 74 75 76 77 78 79 80 81 82 83 84 85 86 87 88 89 90 91 92 93 94 95 96 97 98 99 109 110 113 114 115 116 118 120 121 123 124 125 126 127 129 131 133 137 141 151 159 161 162 166 167 168 169 170 171 172 173 174 175 176 177 178 179 184 185 186
 49 50 51 52 53 54 61 63 65 66 67 70 107 111
 60 71 83 85 86 89 90 92 93 95 96 129 131 133 137 141
 60 71 83 85 86 89 90 92 93 95 96 159
 60 71 83 85 86 89 90 92 93 95 96 151
 178 179 184











 50 51 52 53 54 61 63 64 65 66 67 70 100 101 102 103 104 105 106 107 111 112 117 119 122 130 132 134 135 136 138 139 143 144 145 146 147 148 149 153 154 155 156 157 163 164 165 181 182
 51 52 53 54 61 63 64 65 66 67 70 100 101 102 103 104 105 106 107 111 112 117 119 122 130 132 134 135 136 138 139 143 144 145 146 147 148 149 153 154 155 156 157 163 164 165 181 182
 52 53 54 61 63 64 65 66 67 70 100 101 102 103 104 105 106 107 111 112 117 119 122 130 132 134 135 136 138 139 143 144 145 146 147 148 149 153 154 155 156 157 163 164 165 181 182
 53 54 61 63 64 65 66 67 70 100 101 102 103 104 105 106 107 111 112 117 119 122 130 132 134 135 136 138 139 143 144 145 146 147 148 149 153 154 155 156 157 163 164 165 181 182
 54 61 63 64 65 66 67 70 100 101 102 103 104 105 106 107 111 112 117 119 122 130 132 134 135 136 138 139 143 144 145 146 147 148 149 153 154 155 156 157 163 164 165 181 182
 61 63 64 65 66 67 70 100 101 102 103 104 105 106 107 111 112 117 119 122 130 132 134 135 136 138 139 143 144 145 146 147 148 149 153 154 155 156 157 163 164 165 181 182





 62 68 69 71 72 73 74 75 76 77 78 79 80 81 82 83 84 85 86 87 88 89 90 91 92 93 94 95 96 97 98 99 109 110 113 114 115 116 118 120 121 123 124 125 126 129 131 133 137 141 151 159
 63 64 65 66 67 70 100 101 102 103 104 105 106 107 111 112 117 119 122 130 132 134 135 136 138 139 143 144 145 146 147 148 149 153 154 155 156 157

 64 65 66 67 70 100 101 102 103 104 105 106 107 111 112 117 119 122 130 132 134 135 136 138 139 143 144 145 146 147 148 149 153 154 155 156 157

 66 67 70 100 101 102 103 104 105 106 107 111 112 117 119 122 130 132 134 135 136 138 139 143 144 145 146 147 148 149 153 154 155 156 157
 67 70 100 101 102 103 104 105 106 107 111 112 117 119 122 130 132 134 135 136 138 139 143 144 145 146 147 148 149 153 154 155 156 157
 70 100 101 102 103 104 105 106 107 111 112 117 119 122 130 132 134 135 136 138 139 143 144 145 146 147 148 149 153 154 155 156 157

 71 72 73 74
 100 101 102 103 104 105 106 107 111 112 117 119 122 130 132 134 135 136 138 139 143 144 145 146 147 148 149 153 154 155 156 157
 72 73 74 75 76 77 78 79 80 81 82 83 84 85 86 87 88 89 90 91 92 93 94 95 96 97 98 99 109 110 113 114 115 116 118 120 121 123 124 125 126 129 131 133 137 141 151 159

 74



 78 79 80 81
 79 80 81 82 83
 80 81 82 83 84
 81 82 83 84 85
 82 83 84 85 86 87
 83 84 85 86 87 88 89
 84 85 86 87 88 89 90 91 92 93 94 95 96 97 98 99 109 110 113 114 115 116 118 120 121 123 124 125 126 129 131 133 137 141 151 159
 85 86
 86 87 88 89 90 91 92 93 94 95 96 97 98 99 109 110 113 114 115 116 118 120 121 123 124 125 126 129 131 133 137 141 151 159
 87 88 89 90 91 92 93 94 95 96 97 98 99 109 110 113 114 115 116 118 120 121 123 124 125 126 129 131 133 137 141 151 159
 88 89 90 91 92
 89 90 91 92 93 94 95
 90 91 92 93 94 95 96 97 98 99 109 110 113 114 115 116 118 120 121 123 124 125 126 129 131 133 137 141 151 159
 91 92 93 94 95 96 97 98 99 109 110 113 114 115 116 118 120 121 123 124 125 126 129 131 133 137 141 151 159

 93 94 95 96 97 98 99 109 110 113 114 115 116 118 120 121 123 124 125 126 129 131 133 137 141 151 159
 94 95 96 97 98 99 109 110 113 114 115 116 118 120 121 123 124 125 126 129 131 133 137 141 151 159

 96 97 98 99 109 110 113 114 115 116 118 120 121 123 124 125 126 129 131 133 137 141 151 159
 97 98 99 109 110 113 114 115 116 118 120 121 123 124 125 126 129 131 133 137 141 151 159

 99








 153 154 155 156 157

 110




 115 116
 116
 118 120 121
 119


 121



 125




 131 133 137
 132 134 135

 134



 138






 144 145 146
 145


 148













 162

 164 165
 165

 167

 169 170 171 172 173 174 175
 170 171 172 173 174 175
 171 172 173 174 175
 172 173 174 175
 173 174 175
 174 175
 175

 177
 178
 179 184
 184







